benchmarks_vrp/CMT1/fixed_c/CMT1_8.vrp
NAME: CMT1_8
TYPE: CVRP
COMMENT: 524.61 - Cluster Nr.8
DIMENSION: 8
CAPACITY: 160
EDGE_WEIGHT_TYPE: EUC_2D
NODE_COORD_TYPE: TWOD_COORDS
NODE_COORD_SECTION: 
5 39 10
8 32 22
7 21 10
1 30 15
4 36 16
6 27 23
2 46 10
3 30 40
DEPOT_SECTION: 
3
-1
DEMAND_SECTION: 
8 9
2 23
4 10
5 10
6 3
1 16
3 0
7 13
EOF
