benchmarks_vrp/CMT1/fixed_c/CMT1_8.tour
NAME: CMT1_8 solution
TYPE: TOUR
TOUR_SECTION:
3 6 7 1 5 2 4 8 -1
-1
EOF